unsat
( c1332
  c1351
  c1356
  c1357
  c1361
  c1362
  c1366
  c1367
  c1370
  c1378
  c1379
  c1380
  c1381
  c1383
  c1384
  c1385
  c1388
  c1389
  c1390
  c1393
  c1394
  c1395
  c1398
  c1399
  c1400
  c1403
  c1404
  c1405
  c1410
  c1411
  c1412
  c1415
  c1416
  c1417
  c1420
  c1421
  c1422
  c1425
  c1426
  c1427
  c1430
  c1431
  c1432
  c1437
  c1438
  c1439
  c1444
  c1447
  c1450
  c1455
  c1456
  c1457
  c1458
  c1459
  c1460
  c1461
  c1462
  c1463
  c1464
  c1465
  c1466
  c1467
  c1468
  c1469
  c1470
  c1471
  c1472
  c1473
  c1474
  c1475
  c1476
  c1477
  c1478
  c1479
  c1480
  c1481
  c1482
  c1483
  c1484
  c1489
  c1492
  c1495
  c1500
  c1501
  c1502
  c1503
  c1504
  c1505
  c1506
  c1507
  c1508
  c1509
  c1510
  c1511
  c1512
  c1513
  c1514
  c1515
  c1516
  c1517
  c1518
  c1519
  c1520
  c1521
  c1522
  c1523
  c1524
  c1525
  c1526
  c1527
  c1528
  c1529
  c1534
  c1537
  c1540
  c1545
  c1546
  c1547
  c1548
  c1549
  c1550
  c1551
  c1552
  c1553
  c1554
  c1555
  c1556
  c1557
  c1558
  c1559
  c1560
  c1561
  c1562
  c1563
  c1564
  c1565
  c1566
  c1567
  c1568
  c1569
  c1570
  c1571
  c1572
  c1573
  c1574
  c1575
  c1576
  c1577
  c1578
  c1579
  c1580
  c1581
  c1582
  c1583
  c1584
  c1585
  c1586
  c1587
  c1588
  c1589
  c1590
  c1591
  c1592
  c1593
  c1594
  c1595
  c1596
  c1597
  c1598
  c190
  c232 )
